This is Ipopt version 3.12.12, running with linear solver mumps.
NOTE: Other linear solvers might be more efficient (see Ipopt documentation).

Number of nonzeros in equality constraint Jacobian...:   262010
Number of nonzeros in inequality constraint Jacobian.:    48000
Number of nonzeros in Lagrangian Hessian.............:   206001

Total number of variables............................:    38010
                     variables with only lower bounds:     4002
                variables with lower and upper bounds:    16008
                     variables with only upper bounds:        0
Total number of equality constraints.................:    38010
Total number of inequality constraints...............:    16000
        inequality constraints with only lower bounds:        0
   inequality constraints with lower and upper bounds:        0
        inequality constraints with only upper bounds:    16000

iter    objective    inf_pr   inf_du lg(mu)  ||d||  lg(rg) alpha_du alpha_pr  ls
   0  9.9999900e-03 6.90e-01 1.00e+00   0.0 0.00e+00    -  0.00e+00 0.00e+00   0
MUMPS returned INFO(1) = -9 and requires more memory, reallocating.  Attempt 1
  Increasing icntl[13] from 1000 to 2000.
MUMPS returned INFO(1) = -9 and requires more memory, reallocating.  Attempt 2
  Increasing icntl[13] from 2000 to 4000.
   1  1.5595058e-02 6.87e-01 6.47e+03   0.1 1.48e+01    -  7.31e-02 3.70e-03f  1
   2  1.7179719e+00 2.33e-01 1.00e+04  -0.4 2.57e+00    -  1.97e-02 6.61e-01f  1
   3  6.3605476e-01 6.38e-02 6.23e+03  -1.3 1.49e+00    -  4.30e-01 7.27e-01h  1
   4  6.3908029e-01 5.55e-02 4.84e+03  -6.6 1.54e+00    -  2.51e-01 1.30e-01h  1
   5  1.0638741e+00 3.93e-02 3.43e+03  -1.1 1.46e+00    -  2.89e-01 2.91e-01f  1
   6  1.4967769e+00 3.00e-02 2.46e+03  -1.1 2.77e+00    -  5.00e-01 2.37e-01f  1
   7  1.9341868e+00 2.02e-02 1.63e+03  -1.5 2.53e+00    -  5.90e-01 3.24e-01h  1
   8  3.3073367e+00 1.46e-02 9.70e+02  -1.2 4.91e+00    -  4.16e-01 2.80e-01f  1
   9  3.3267984e+00 5.88e-03 5.46e+02  -2.1 6.61e+00    -  3.98e-01 5.97e-01h  1
iter    objective    inf_pr   inf_du lg(mu)  ||d||  lg(rg) alpha_du alpha_pr  ls
  10  3.5356714e+00 7.83e-04 7.10e+01  -1.9 1.75e+01    -  1.00e+00 8.66e-01h  1
  11  4.4207366e+00 5.00e-04 6.96e+03  -1.7 4.30e+01    -  1.00e+00 3.49e-01f  1
  12  3.6588131e+00 6.15e-04 8.73e+01  -2.1 2.81e+01    -  1.00e+00 1.00e+00h  1
  13  7.2644030e+00 4.41e-04 4.52e+02  -1.6 1.51e+01    -  1.00e+00 7.99e-01f  1
  14  5.0075393e+00 1.66e-04 7.09e+02  -2.0 1.85e+02    -  3.22e-01 8.55e-01H  1
  15  3.6486140e+00 3.09e-05 2.20e+01  -2.6 2.01e+01  -2.0 1.00e+00 1.00e+00h  1
  16  1.0193208e+00 3.84e-05 5.16e+02  -2.7 2.84e+01  -2.5 6.77e-01 1.00e+00H  1
  17  1.0205047e+00 8.61e-05 4.46e+02  -2.7 2.71e-01  -0.2 1.37e-01 1.24e-01f  3
  18  1.0192971e+00 7.42e-05 1.23e+02  -2.8 5.10e-02   0.2 5.86e-01 5.00e-01h  2
  19  1.1543671e+00 2.43e-04 1.46e+02  -1.9 3.87e-01  -0.3 3.80e-01 3.49e-01f  1
iter    objective    inf_pr   inf_du lg(mu)  ||d||  lg(rg) alpha_du alpha_pr  ls
  20  1.2762341e+00 1.39e-05 3.74e+00  -2.3 3.08e-01  -0.8 1.00e+00 1.00e+00f  1
  21  1.1819931e+00 1.92e-05 2.15e+00  -2.8 1.24e+00  -1.3 1.00e+00 1.00e+00H  1
  22  1.0260786e+00 4.49e-06 2.91e+02  -3.1 1.49e+00  -1.7 1.00e+00 5.00e-01h  2
  23  8.5963233e-01 3.49e-06 4.93e+02  -3.3 2.72e+00  -2.2 1.00e+00 3.65e-01h  2
  24  8.1578400e-01 3.39e-06 6.33e+02  -3.4 7.68e+00  -2.7 1.00e+00 1.40e-01h  3
  25  7.8708060e-01 3.39e-06 8.05e+02  -3.6 1.83e+00  -2.3 1.00e+00 9.01e-02h  4
  26  7.7339766e-01 3.76e-06 7.38e+02  -3.5 9.80e+00  -2.7 6.27e-01 4.82e-02h  5
  27  7.8112195e-01 9.43e-05 6.60e+02  -3.2 5.11e+00  -2.3 7.25e-01 2.94e-01F  1
  28  7.7807374e-01 9.18e-05 5.43e+02  -3.4 2.99e+01  -2.8 1.71e-01 2.64e-02f  5
  29  7.6020141e-01 8.03e-05 7.87e+02  -3.4 1.27e+01  -2.4 4.52e-01 1.25e-01H  1
iter    objective    inf_pr   inf_du lg(mu)  ||d||  lg(rg) alpha_du alpha_pr  ls
  30  7.5975305e-01 8.03e-05 1.03e+03  -9.4 3.18e+02  -2.8 3.87e-02 4.85e-04H  1
  31  1.1832595e+00 3.35e-05 2.44e+04  -9.4 4.03e+01  -3.3 1.58e-02 5.22e-01h  1
  32  1.2439852e+00 5.86e-04 8.22e+05  -3.4 2.15e+02  -3.8 2.46e-05 2.92e-01F  1
  33  1.1717824e+00 4.69e-04 7.49e+05  -3.4 7.06e+02  -3.4 1.79e-01 8.83e-02h  1
  34  1.1324945e+00 4.30e-04 7.23e+05  -3.4 8.55e+02  -3.8 5.24e-02 3.44e-02h  1
  35  1.1087085e+00 4.00e-04 7.03e+05  -3.4 7.06e+02    -  3.76e-02 2.77e-02h  1
  36  1.1139393e+00 3.73e-04 6.66e+05  -3.4 2.88e+02    -  6.88e-02 5.36e-02h  1
  37  1.1691448e+00 3.39e-04 6.06e+05  -3.4 8.73e+01    -  1.36e-01 9.04e-02h  1
  38  2.0290846e+00 3.79e-04 9.46e+04  -3.4 2.12e+01    -  4.78e-01 8.44e-01f  1
  39  2.8284416e+00 2.01e-04 1.67e+03  -3.4 2.13e+01    -  5.21e-02 1.00e+00f  1
iter    objective    inf_pr   inf_du lg(mu)  ||d||  lg(rg) alpha_du alpha_pr  ls
  40  1.7953749e+00 6.59e-05 1.31e+03  -3.4 2.84e+01    -  1.75e-01 1.00e+00f  1
  41  1.6506474e+00 9.36e-05 4.97e-01  -3.4 1.13e+02    -  1.00e+00 1.00e+00F  1
  42  1.6285321e+00 2.27e-05 5.24e+00  -3.4 1.50e+01    -  8.47e-01 1.00e+00h  1
  43  1.7269628e+00 2.05e-05 3.70e+00  -3.4 4.32e+01  -3.4 1.00e+00 1.00e+00h  1
  44  1.9433809e+00 2.36e-05 1.47e+01  -3.4 6.04e+01  -3.9 1.00e+00 1.00e+00h  1
  45  2.0104073e+00 1.74e-05 2.81e-01  -3.4 2.80e+00  -3.5 1.00e+00 1.00e+00h  1
  46  2.0328357e+00 9.65e-07 4.14e-02  -3.4 1.13e+00  -3.0 1.00e+00 1.00e+00h  1
  47  1.4583864e+00 8.07e-06 3.77e+00  -4.3 1.24e+01  -3.5 1.00e+00 1.00e+00f  1
  48  1.2998385e+00 1.00e-04 1.16e+01  -4.4 3.55e+02  -4.0 2.64e-01 2.44e-01f  1
  49  1.4154089e+00 8.97e-05 3.17e+00  -4.4 1.20e+01  -3.6 1.00e+00 1.00e+00h  1
iter    objective    inf_pr   inf_du lg(mu)  ||d||  lg(rg) alpha_du alpha_pr  ls
  50  1.3923831e+00 7.77e-05 5.40e+01  -4.4 9.08e+01  -4.0 1.00e+00 1.59e-01h  3
  51  1.4555673e+00 1.40e-05 2.12e-01  -4.4 8.37e+00  -3.6 1.00e+00 1.00e+00h  1
  52  1.3963371e+00 1.12e-05 1.03e+01  -4.4 3.14e+01  -4.1 1.00e+00 5.00e-01h  2
  53  1.3750961e+00 1.54e-07 1.35e-03  -4.4 2.25e-01    -  1.00e+00 1.00e+00h  1
  54  1.3304268e+00 3.09e-06 2.34e+01  -4.7 8.26e+01    -  9.95e-01 1.48e-01f  2
  55  1.2640417e+00 3.96e-06 5.10e-01  -6.3 5.27e+00    -  1.00e+00 1.00e+00h  1
  56  1.2717992e+00 4.87e-07 2.81e+00  -5.9 8.51e+00    -  9.63e-01 1.00e+00H  1
  57  1.2659245e+00 4.16e-08 2.31e-01  -7.8 1.51e+00    -  1.00e+00 9.93e-01h  1
  58  1.2660730e+00 1.00e-08 2.65e-06  -9.8 7.61e-04    -  1.00e+00 1.00e+00h  1
  59  1.2660758e+00 1.00e-08 2.74e-06 -11.0 2.44e-04    -  1.00e+00 1.00e+00h  1
iter    objective    inf_pr   inf_du lg(mu)  ||d||  lg(rg) alpha_du alpha_pr  ls
  60  1.2660758e+00 1.00e-08 3.84e-10 -11.0 1.72e-08    -  1.00e+00 1.00e+00h  1
  61  1.2660758e+00 1.00e-08 2.13e-12 -11.0 8.68e-11    -  1.00e+00 1.00e+00h  1
  62  1.2660758e+00 1.00e-08 2.04e-12 -11.0 3.81e-13    -  1.00e+00 1.00e+00h  1
  63  1.2660758e+00 1.00e-08 2.32e-12 -11.0 1.04e-12    -  1.00e+00 1.00e+00h  1
  64  1.2660758e+00 1.00e-08 2.04e-12 -11.0 3.09e-13    -  1.00e+00 1.00e+00h  1
  65  1.2660758e+00 1.00e-08 2.15e-12 -11.0 1.08e-12    -  1.00e+00 1.00e+00h  1
  66  1.2660758e+00 1.00e-08 1.91e-12 -11.0 1.56e-12    -  1.00e+00 1.00e+00h  1
  67  1.2660758e+00 1.00e-08 2.09e-12 -11.0 3.93e-12    -  1.00e+00 1.00e+00h  1
  68  1.2660758e+00 1.00e-08 2.73e+01 -11.0 1.39e-11    -  9.58e-01 1.00e+00h  1
  69  1.2660735e+00 1.00e-08 1.76e-07 -11.0 1.34e-05    -  1.00e+00 1.00e+00h  1
iter    objective    inf_pr   inf_du lg(mu)  ||d||  lg(rg) alpha_du alpha_pr  ls
  70  1.2660747e+00 1.00e-08 4.07e-08 -11.0 7.14e-06    -  1.00e+00 1.00e+00h  1
Cannot recompute multipliers for feasibility problem.  Error in eq_mult_calculator

Number of Iterations....: 70

                                   (scaled)                 (unscaled)
Objective...............:   1.2660747055231387e+00    1.2660747055231387e+00
Dual infeasibility......:   5.0462312798419471e+03    5.0462312798419471e+03
Constraint violation....:   9.9999980399011012e-09    9.9999980399011012e-09
Complementarity.........:   0.0000000000000000e+00    0.0000000000000000e+00
Overall NLP error.......:   9.9999980399011012e-09    5.0462312798419471e+03


Number of objective function evaluations             = 125
Number of objective gradient evaluations             = 71
Number of equality constraint evaluations            = 125
Number of inequality constraint evaluations          = 125
Number of equality constraint Jacobian evaluations   = 71
Number of inequality constraint Jacobian evaluations = 71
Number of Lagrangian Hessian evaluations             = 70
Total CPU secs in IPOPT (w/o function evaluations)   =   1021.855
Total CPU secs in NLP function evaluations           =    127.574

EXIT: Solved To Acceptable Level.
